unsat
(:arith-conflicts     1
 :arith-lower         9
 :arith-make-feasible 1
 :arith-max-columns   39
 :arith-max-rows      15
 :arith-upper         26
 :conflicts           1
 :max-memory          19.04
 :memory              18.58
 :mk-bool-var         35
 :num-allocs          111310
 :num-checks          1
 :rlimit-count        3466
 :time                0.00
 :total-time          0.04)
